p cnf 36 249
4 7 11 16 22 29 37 46 56 67 79 92 0
8 12 17 23 30 38 47 57 68 80 93 107 0
13 18 24 31 39 48 58 69 81 94 108 123 0
-4 -8 0
-7 -12 0
-11 -17 0
-16 -23 0
-22 -30 0
-29 -38 0
-37 -47 0
-46 -57 0
-56 -68 0
-67 -80 0
-79 -93 0
-92 -107 0
-4 -13 0
-7 -18 0
-11 -24 0
-16 -31 0
-22 -39 0
-29 -48 0
-37 -58 0
-46 -69 0
-56 -81 0
-67 -94 0
-79 -108 0
-92 -123 0
-8 -13 0
-12 -18 0
-17 -24 0
-23 -31 0
-30 -39 0
-38 -48 0
-47 -58 0
-57 -69 0
-68 -81 0
-80 -94 0
-93 -108 0
-107 -123 0
-4 -17 0
-4 -23 0
-4 -30 0
-4 -47 0
-4 -57 0
-4 -68 0
-4 -80 0
-4 -93 0
-7 -17 0
-7 -30 0
-7 -47 0
-7 -57 0
-7 -107 0
-11 -30 0
-11 -38 0
-11 -47 0
-11 -57 0
-11 -68 0
-11 -80 0
-11 -93 0
-16 -30 0
-16 -38 0
-16 -57 0
-16 -80 0
-22 -57 0
-22 -93 0
-22 -107 0
-29 -47 0
-29 -80 0
-37 -68 0
-37 -107 0
-46 -68 0
-46 -80 0
-56 -80 0
-56 -107 0
-4 -24 0
-4 -31 0
-4 -39 0
-4 -58 0
-4 -69 0
-4 -81 0
-4 -94 0
-4 -108 0
-7 -24 0
-7 -39 0
-7 -58 0
-7 -69 0
-7 -123 0
-11 -39 0
-11 -48 0
-11 -58 0
-11 -69 0
-11 -81 0
-11 -94 0
-11 -108 0
-16 -39 0
-16 -48 0
-16 -69 0
-16 -94 0
-22 -69 0
-22 -108 0
-22 -123 0
-29 -58 0
-29 -94 0
-37 -81 0
-37 -123 0
-46 -81 0
-46 -94 0
-56 -94 0
-56 -123 0
-8 -11 0
-8 -16 0
-8 -22 0
-8 -37 0
-8 -46 0
-8 -56 0
-8 -67 0
-8 -79 0
-12 -11 0
-12 -22 0
-12 -37 0
-12 -46 0
-12 -92 0
-17 -22 0
-17 -29 0
-17 -37 0
-17 -46 0
-17 -56 0
-17 -67 0
-17 -79 0
-23 -22 0
-23 -29 0
-23 -46 0
-23 -67 0
-30 -46 0
-30 -79 0
-30 -92 0
-38 -37 0
-38 -67 0
-47 -56 0
-47 -92 0
-57 -56 0
-57 -67 0
-68 -67 0
-68 -92 0
-8 -24 0
-8 -31 0
-8 -39 0
-8 -58 0
-8 -69 0
-8 -81 0
-8 -94 0
-8 -108 0
-12 -24 0
-12 -39 0
-12 -58 0
-12 -69 0
-12 -123 0
-17 -39 0
-17 -48 0
-17 -58 0
-17 -69 0
-17 -81 0
-17 -94 0
-17 -108 0
-23 -39 0
-23 -48 0
-23 -69 0
-23 -94 0
-30 -69 0
-30 -108 0
-30 -123 0
-38 -58 0
-38 -94 0
-47 -81 0
-47 -123 0
-57 -81 0
-57 -94 0
-68 -94 0
-68 -123 0
-13 -11 0
-13 -16 0
-13 -22 0
-13 -37 0
-13 -46 0
-13 -56 0
-13 -67 0
-13 -79 0
-18 -11 0
-18 -22 0
-18 -37 0
-18 -46 0
-18 -92 0
-24 -22 0
-24 -29 0
-24 -37 0
-24 -46 0
-24 -56 0
-24 -67 0
-24 -79 0
-31 -22 0
-31 -29 0
-31 -46 0
-31 -67 0
-39 -46 0
-39 -79 0
-39 -92 0
-48 -37 0
-48 -67 0
-58 -56 0
-58 -92 0
-69 -56 0
-69 -67 0
-81 -67 0
-81 -92 0
-13 -17 0
-13 -23 0
-13 -30 0
-13 -47 0
-13 -57 0
-13 -68 0
-13 -80 0
-13 -93 0
-18 -17 0
-18 -30 0
-18 -47 0
-18 -57 0
-18 -107 0
-24 -30 0
-24 -38 0
-24 -47 0
-24 -57 0
-24 -68 0
-24 -80 0
-24 -93 0
-31 -30 0
-31 -38 0
-31 -57 0
-31 -80 0
-39 -57 0
-39 -93 0
-39 -107 0
-48 -47 0
-48 -80 0
-58 -68 0
-58 -107 0
-69 -68 0
-69 -80 0
-81 -80 0
-81 -107 0
